534 53
552 472
613 423
439 103
395 53
2 230
542 127
563 675
221 631
227 511
543 313
498 493
312 604
306 580
586 80
117 131
695 223
547 306
646 568
332 331
225 533
456 613
632 564
91 114
591 679
579 12
486 490
307 114
365 619
469 330
43 106
462 384
232 172
361 663
557 404
473 449
638 296
599 78
392 114
380 464
183 111
462 413
456 303
134 388
361 533
49 362
640 226
41 26
473 216
392 12
627 391
238 459
194 562
394 472
239 183
588 100
595 455
487 343
482 347
506 206
359 504
201 186
255 585
601 144
650 458
463 292
379 330
89 107
108 533
196 31
618 353
473 634
442 57
251 395
341 544
68 122
317 308
608 150
359 618
686 676
124 89
176 215
559 693
171 641
280 486
233 62
324 602
436 370
491 69
611 475
108 368
552 353
131 401
213 678
443 149
10 228
640 8
493 601
157 281
45 499
